NAME : TSP_INST.8041349.tour
COMMENT : Length = 8041349
COMMENT : Found by LKH [Keld Helsgaun] Sat Oct 18 11:07:54 2025
TYPE : TOUR
DIMENSION : 100
TOUR_SECTION
1
20
72
63
4
95
24
46
26
82
49
96
9
99
47
86
16
73
70
30
32
100
62
81
98
36
76
6
59
14
17
8
75
52
84
58
10
21
77
50
43
79
34
45
65
41
11
7
54
31
69
35
44
5
42
83
13
33
97
92
29
80
78
27
40
60
55
67
2
64
22
3
93
18
19
88
53
66
94
56
23
38
68
90
15
12
37
85
74
87
25
91
51
28
57
39
89
48
71
61
-1
EOF
